c File: flat50_3_0.col
c
c SOURCE: Joseph Culberson (joe@cs.ualberta.ca)
c DESCRIPTION: Quasi-random coloring problem
c              generated with flatness = 0
c                             probability = 0.139
c                             known coloring = 3
c                             random seed = 1817
c              Creation Date:  Tue Jun  9 12:18:39 1998
c Maximum degree = 8 Minimum degree = 1
c p edge 50 115
c cnf created by edge2cnf
p cnf 150 545
-1 -2 0
-1 -3 0
-2 -3 0
1 2 3 0
-4 -5 0
-4 -6 0
-5 -6 0
4 5 6 0
-7 -8 0
-7 -9 0
-8 -9 0
7 8 9 0
-10 -11 0
-10 -12 0
-11 -12 0
10 11 12 0
-13 -14 0
-13 -15 0
-14 -15 0
13 14 15 0
-16 -17 0
-16 -18 0
-17 -18 0
16 17 18 0
-19 -20 0
-19 -21 0
-20 -21 0
19 20 21 0
-22 -23 0
-22 -24 0
-23 -24 0
22 23 24 0
-25 -26 0
-25 -27 0
-26 -27 0
25 26 27 0
-28 -29 0
-28 -30 0
-29 -30 0
28 29 30 0
-31 -32 0
-31 -33 0
-32 -33 0
31 32 33 0
-34 -35 0
-34 -36 0
-35 -36 0
34 35 36 0
-37 -38 0
-37 -39 0
-38 -39 0
37 38 39 0
-40 -41 0
-40 -42 0
-41 -42 0
40 41 42 0
-43 -44 0
-43 -45 0
-44 -45 0
43 44 45 0
-46 -47 0
-46 -48 0
-47 -48 0
46 47 48 0
-49 -50 0
-49 -51 0
-50 -51 0
49 50 51 0
-52 -53 0
-52 -54 0
-53 -54 0
52 53 54 0
-55 -56 0
-55 -57 0
-56 -57 0
55 56 57 0
-58 -59 0
-58 -60 0
-59 -60 0
58 59 60 0
-61 -62 0
-61 -63 0
-62 -63 0
61 62 63 0
-64 -65 0
-64 -66 0
-65 -66 0
64 65 66 0
-67 -68 0
-67 -69 0
-68 -69 0
67 68 69 0
-70 -71 0
-70 -72 0
-71 -72 0
70 71 72 0
-73 -74 0
-73 -75 0
-74 -75 0
73 74 75 0
-76 -77 0
-76 -78 0
-77 -78 0
76 77 78 0
-79 -80 0
-79 -81 0
-80 -81 0
79 80 81 0
-82 -83 0
-82 -84 0
-83 -84 0
82 83 84 0
-85 -86 0
-85 -87 0
-86 -87 0
85 86 87 0
-88 -89 0
-88 -90 0
-89 -90 0
88 89 90 0
-91 -92 0
-91 -93 0
-92 -93 0
91 92 93 0
-94 -95 0
-94 -96 0
-95 -96 0
94 95 96 0
-97 -98 0
-97 -99 0
-98 -99 0
97 98 99 0
-100 -101 0
-100 -102 0
-101 -102 0
100 101 102 0
-103 -104 0
-103 -105 0
-104 -105 0
103 104 105 0
-106 -107 0
-106 -108 0
-107 -108 0
106 107 108 0
-109 -110 0
-109 -111 0
-110 -111 0
109 110 111 0
-112 -113 0
-112 -114 0
-113 -114 0
112 113 114 0
-115 -116 0
-115 -117 0
-116 -117 0
115 116 117 0
-118 -119 0
-118 -120 0
-119 -120 0
118 119 120 0
-121 -122 0
-121 -123 0
-122 -123 0
121 122 123 0
-124 -125 0
-124 -126 0
-125 -126 0
124 125 126 0
-127 -128 0
-127 -129 0
-128 -129 0
127 128 129 0
-130 -131 0
-130 -132 0
-131 -132 0
130 131 132 0
-133 -134 0
-133 -135 0
-134 -135 0
133 134 135 0
-136 -137 0
-136 -138 0
-137 -138 0
136 137 138 0
-139 -140 0
-139 -141 0
-140 -141 0
139 140 141 0
-142 -143 0
-142 -144 0
-143 -144 0
142 143 144 0
-145 -146 0
-145 -147 0
-146 -147 0
145 146 147 0
-148 -149 0
-148 -150 0
-149 -150 0
148 149 150 0
-58 -1 0
-59 -2 0
-60 -3 0
-91 -1 0
-92 -2 0
-93 -3 0
-94 -1 0
-95 -2 0
-96 -3 0
-106 -1 0
-107 -2 0
-108 -3 0
-148 -1 0
-149 -2 0
-150 -3 0
-61 -4 0
-62 -5 0
-63 -6 0
-76 -4 0
-77 -5 0
-78 -6 0
-112 -4 0
-113 -5 0
-114 -6 0
-145 -4 0
-146 -5 0
-147 -6 0
-58 -7 0
-59 -8 0
-60 -9 0
-79 -7 0
-80 -8 0
-81 -9 0
-85 -7 0
-86 -8 0
-87 -9 0
-103 -7 0
-104 -8 0
-105 -9 0
-127 -7 0
-128 -8 0
-129 -9 0
-58 -10 0
-59 -11 0
-60 -12 0
-97 -10 0
-98 -11 0
-99 -12 0
-130 -10 0
-131 -11 0
-132 -12 0
-64 -13 0
-65 -14 0
-66 -15 0
-70 -13 0
-71 -14 0
-72 -15 0
-76 -13 0
-77 -14 0
-78 -15 0
-88 -13 0
-89 -14 0
-90 -15 0
-142 -13 0
-143 -14 0
-144 -15 0
-58 -16 0
-59 -17 0
-60 -18 0
-94 -16 0
-95 -17 0
-96 -18 0
-127 -16 0
-128 -17 0
-129 -18 0
-133 -16 0
-134 -17 0
-135 -18 0
-55 -19 0
-56 -20 0
-57 -21 0
-79 -19 0
-80 -20 0
-81 -21 0
-85 -19 0
-86 -20 0
-87 -21 0
-94 -19 0
-95 -20 0
-96 -21 0
-112 -19 0
-113 -20 0
-114 -21 0
-127 -19 0
-128 -20 0
-129 -21 0
-142 -19 0
-143 -20 0
-144 -21 0
-55 -22 0
-56 -23 0
-57 -24 0
-70 -22 0
-71 -23 0
-72 -24 0
-82 -22 0
-83 -23 0
-84 -24 0
-109 -22 0
-110 -23 0
-111 -24 0
-115 -22 0
-116 -23 0
-117 -24 0
-118 -22 0
-119 -23 0
-120 -24 0
-64 -25 0
-65 -26 0
-66 -27 0
-91 -25 0
-92 -26 0
-93 -27 0
-103 -25 0
-104 -26 0
-105 -27 0
-124 -25 0
-125 -26 0
-126 -27 0
-133 -25 0
-134 -26 0
-135 -27 0
-82 -28 0
-83 -29 0
-84 -30 0
-94 -28 0
-95 -29 0
-96 -30 0
-112 -28 0
-113 -29 0
-114 -30 0
-139 -28 0
-140 -29 0
-141 -30 0
-142 -28 0
-143 -29 0
-144 -30 0
-52 -31 0
-53 -32 0
-54 -33 0
-64 -31 0
-65 -32 0
-66 -33 0
-76 -31 0
-77 -32 0
-78 -33 0
-82 -31 0
-83 -32 0
-84 -33 0
-103 -31 0
-104 -32 0
-105 -33 0
-121 -31 0
-122 -32 0
-123 -33 0
-79 -34 0
-80 -35 0
-81 -36 0
-109 -34 0
-110 -35 0
-111 -36 0
-124 -34 0
-125 -35 0
-126 -36 0
-127 -34 0
-128 -35 0
-129 -36 0
-148 -34 0
-149 -35 0
-150 -36 0
-64 -37 0
-65 -38 0
-66 -39 0
-100 -37 0
-101 -38 0
-102 -39 0
-106 -37 0
-107 -38 0
-108 -39 0
-121 -37 0
-122 -38 0
-123 -39 0
-100 -40 0
-101 -41 0
-102 -42 0
-106 -40 0
-107 -41 0
-108 -42 0
-106 -43 0
-107 -44 0
-108 -45 0
-142 -43 0
-143 -44 0
-144 -45 0
-79 -46 0
-80 -47 0
-81 -48 0
-136 -46 0
-137 -47 0
-138 -48 0
-148 -46 0
-149 -47 0
-150 -48 0
-55 -49 0
-56 -50 0
-57 -51 0
-70 -49 0
-71 -50 0
-72 -51 0
-73 -49 0
-74 -50 0
-75 -51 0
-91 -49 0
-92 -50 0
-93 -51 0
-133 -49 0
-134 -50 0
-135 -51 0
-136 -49 0
-137 -50 0
-138 -51 0
-103 -52 0
-104 -53 0
-105 -54 0
-118 -55 0
-119 -56 0
-120 -57 0
-130 -55 0
-131 -56 0
-132 -57 0
-133 -55 0
-134 -56 0
-135 -57 0
-115 -58 0
-116 -59 0
-117 -60 0
-121 -58 0
-122 -59 0
-123 -60 0
-136 -58 0
-137 -59 0
-138 -60 0
-139 -58 0
-140 -59 0
-141 -60 0
-130 -61 0
-131 -62 0
-132 -63 0
-133 -61 0
-134 -62 0
-135 -63 0
-127 -64 0
-128 -65 0
-129 -66 0
-133 -67 0
-134 -68 0
-135 -69 0
-136 -67 0
-137 -68 0
-138 -69 0
-148 -67 0
-149 -68 0
-150 -69 0
-121 -70 0
-122 -71 0
-123 -72 0
-142 -70 0
-143 -71 0
-144 -72 0
-106 -73 0
-107 -74 0
-108 -75 0
-121 -73 0
-122 -74 0
-123 -75 0
-130 -73 0
-131 -74 0
-132 -75 0
-136 -73 0
-137 -74 0
-138 -75 0
-148 -76 0
-149 -77 0
-150 -78 0
-109 -82 0
-110 -83 0
-111 -84 0
-136 -82 0
-137 -83 0
-138 -84 0
-142 -82 0
-143 -83 0
-144 -84 0
-148 -82 0
-149 -83 0
-150 -84 0
-103 -85 0
-104 -86 0
-105 -87 0
-121 -85 0
-122 -86 0
-123 -87 0
-133 -88 0
-134 -89 0
-135 -90 0
-148 -88 0
-149 -89 0
-150 -90 0
-115 -91 0
-116 -92 0
-117 -93 0
-142 -91 0
-143 -92 0
-144 -93 0
-127 -94 0
-128 -95 0
-129 -96 0
-106 -97 0
-107 -98 0
-108 -99 0
-112 -97 0
-113 -98 0
-114 -99 0
-103 -100 0
-104 -101 0
-105 -102 0
-112 -100 0
-113 -101 0
-114 -102 0
-130 -100 0
-131 -101 0
-132 -102 0
-142 -100 0
-143 -101 0
-144 -102 0
